
  32    1
  10

   0   0   4 2 3 4 7 
   8   1   2 6 5 
   3   3   2 6 5 
   6   5   1 5 
   1   4   2 9 8 
   9   5   3 16 11 9 
  10   5   3 16 11 9 
   4   7   2 12 10 
  10   7   6 21 20 15 14 13 12 
   1   6   3 17 16 11 
   2   6   5 21 20 18 15 14 
   5   9   5 29 22 19 18 17 
   9   4   3 22 19 17 
   6   8   3 24 22 19 
   7   2   5 29 26 25 24 23 
   4   6   2 25 20 
   9   9   4 26 25 24 23 
   4  10   4 26 25 24 23 
   9   5   3 26 25 23 
   3   9   2 26 22 
   7   7   2 25 23 
   5   6   2 27 23 
   9   9   2 31 28 
   8   7   2 31 27 
   3   7   1 27 
   6   9   1 28 
   9   8   1 30 
  10   6   1 30 
   3   4   1 31 
   9   3   1 32
   5   3   1 32
   0   0   0 
